unknown
(model
; cardinality of BoundSet is 2
(declare-sort BoundSet 0)
; rep: @uc_BoundSet_0
; rep: @uc_BoundSet_1
; cardinality of UnboundSet is 1
(declare-sort UnboundSet 0)
(declare-fun groundTerm_3 () UnboundSet)
(define-fun IsInCrowd ((BOUND_VARIABLE_411 BoundSet)) Bool true)
(define-fun IsTeenager ((BOUND_VARIABLE_411 BoundSet)) Bool true)
(define-fun IsInMiddle ((BOUND_VARIABLE_423 BoundSet) (BOUND_VARIABLE_424 BoundSet)) Bool false)
)
sat
(model
; cardinality of BoundSet is 1
(declare-sort BoundSet 0)
; rep: @uc_BoundSet_0
; cardinality of UnboundSet is 1
(declare-sort UnboundSet 0)
(declare-fun groundTerm_5 () UnboundSet)
(define-fun IsInCrowd ((BOUND_VARIABLE_442 BoundSet)) Bool true)
(define-fun IsTeenager ((BOUND_VARIABLE_442 BoundSet)) Bool true)
(define-fun IsInMiddle ((BOUND_VARIABLE_450 BoundSet) (BOUND_VARIABLE_451 BoundSet)) Bool false)
)
